NAME : S-U-8-19.2134.tour
COMMENT : Length = 2134
COMMENT : Found by LKH [Keld Helsgaun] Thu May 17 23:18:24 2018
TYPE : TOUR
DIMENSION : 31
TOUR_SECTION
1
18
28
21
24
15
9
3
7
5
11
13
23
31
30
20
29
14
2
6
8
10
12
4
16
19
22
27
25
17
26
-1
EOF
